data;
set WEIGHTS := x0 x1 x2 x3 x4 x5 x6 x7 x8 x9 x10 x11 x12 x13 x14 x15 x16 x17 x18 x19;
param:  cost :=
  x0  575
  x1  172
  x2  692
  x3  721
  x4  863
  x5  833
  x6  664
  x7  219
  x8  807
  x9  892
  x10  134
  x11  734
  x12  478
  x13  572
  x14  213
  x15  995
  x16  771
  x17  692
  x18  743
  x19  733;
param cap := 5001;